(set-logic HORN)
(set-info :source |
    Benchmark: C_VC
    Output by Princess (http://www.philipp.ruemmer.org/princess.shtml)
|)
(set-info :status sat)
(declare-heap Heap Addr HeapObject
 defObj
 ((HeapObject 0)) (
  (
   (O_Int (getInt Int))
   (O_UInt (getUInt Int))
   (O_Addr (getAddr Addr))
   (defObj)
  )
))
(declare-fun inv_main13 (Heap Int Addr Int Addr Int AddrRange Int) Bool)
(declare-fun inv_main18 (Heap Int Addr Int Addr Int AddrRange Int) Bool)
(declare-fun inv_main2 (Heap Int Addr) Bool)
(declare-fun inv_main23 (Heap Int Addr Int Addr Int AddrRange Int) Bool)
(declare-fun inv_main28 (Heap Int Addr Int Addr Int AddrRange Int) Bool)
(declare-fun inv_main31 (Heap Int Addr Int Addr Int AddrRange Int) Bool)
(declare-fun inv_main35 (Heap Int Addr Int Addr Int AddrRange Int Int) Bool)
(declare-fun inv_main36 (Heap Int Addr Int Addr Int AddrRange Int Int Int) Bool)
(declare-fun inv_main37 (Heap Int Addr Int Addr Int AddrRange Int Int Int) Bool)
(declare-fun inv_main38 (Heap Int Addr Int Addr Int AddrRange Int Int Int Int) Bool)
(declare-fun inv_main46 (Heap Int Addr Int Addr Int AddrRange Int Int AddrRange Int Int Int) Bool)
(declare-fun inv_main49 (Heap Int Addr Int Addr Int AddrRange Int Int AddrRange Int Int Int) Bool)
(declare-fun inv_main51 (Heap Int Addr Int Addr Int AddrRange Int Int AddrRange Int Int Int) Bool)
(declare-fun inv_main53 (Heap Int Addr Int Addr Int AddrRange Int Int AddrRange Int Int Int Int) Bool)
(declare-fun inv_main54 (Heap Int Addr Int Addr Int AddrRange Int Int AddrRange Int Int Int) Bool)
(declare-fun inv_main56 (Heap Int Addr Int Addr Int AddrRange Int Int AddrRange Int Int Int) Bool)
(declare-fun inv_main57 (Heap Int Addr Int Addr Int AddrRange Int Int AddrRange Int Int Int Int) Bool)
(assert (forall ((var0 Addr) (var1 Int) (var2 Heap)) (or (not (= var2 emptyHeap)) (inv_main2 var2 var1 var0))))
(assert (forall ((var0 Int) (var1 Int) (var2 Int) (var3 AddrRange) (var4 Int) (var5 Addr) (var6 Int) (var7 Addr) (var8 Int) (var9 Heap)) (or (not (and (inv_main35 var9 var8 var7 var6 var5 var4 var3 var2 var1) (and (is-O_Int (read var9 (nthAddrRange var3 var2))) (= var0 (getInt (read var9 (nthAddrRange var3 var2))))))) (inv_main36 var9 var8 var7 var6 var5 var4 var3 var2 var1 var0))))
(assert (forall ((var0 Int) (var1 Int) (var2 Int) (var3 Int) (var4 AddrRange) (var5 Int) (var6 Addr) (var7 Int) (var8 Addr) (var9 Int) (var10 Heap)) (or (not (and (inv_main36 var10 var9 var8 var7 var6 var5 var4 var3 var2 var1) (and (is-O_Int (read var10 (nthAddrRange var4 var2))) (= var0 (getInt (read var10 (nthAddrRange var4 var2))))))) (inv_main38 var10 var9 var8 var7 var6 var5 var4 var3 var2 var1 var0))))
(assert (forall ((var0 Int) (var1 AddrRange) (var2 Int) (var3 Addr) (var4 Int) (var5 Addr) (var6 Int) (var7 Int) (var8 Int) (var9 Heap) (var10 Addr) (var11 Int) (var12 Heap)) (or (not (and (inv_main2 var12 var11 var10) (and (and (and (and (and (and (and (= var9 (newBatchHeap (batchAlloc emptyHeap (O_Int var8) var7))) (= var6 var11)) (= var5 var10)) (= var4 var11)) (= var3 var10)) (= var2 var7)) (= var1 (newAddrRange (batchAlloc emptyHeap (O_Int var8) var7)))) (not (<= 0 (+ (+ 2 (* (- 1) var11)) (- 1))))))) (inv_main13 var9 var6 var5 var4 var3 var2 var1 var0))))
(assert true)
(assert (forall ((var0 Int) (var1 AddrRange) (var2 Int) (var3 Addr) (var4 Int) (var5 Addr) (var6 Int) (var7 Heap) (var8 Int) (var9 Int) (var10 AddrRange) (var11 Int) (var12 Addr) (var13 Int) (var14 Addr) (var15 Int) (var16 Heap)) (or (not (and (inv_main23 var16 var15 var14 var13 var12 var11 var10 var9) (and (and (<= 0 (+ var8 (- 1))) (and (and (is-O_Int (read var16 (nthAddrRange var10 var9))) (is-O_Int (read var16 (nthAddrRange var10 var9)))) (and (and (and (and (and (and (and (= var7 (write var16 (nthAddrRange var10 var9) (O_Int (+ (+ var11 (- 1)) (* (- 1) var9))))) (= var6 var15)) (= var5 var14)) (= var4 var13)) (= var3 var12)) (= var2 var11)) (= var1 var10)) (= var8 var9)))) (= var0 (+ var8 (- 1)))))) (inv_main23 var7 var6 var5 var4 var3 var2 var1 var0))))
(assert (forall ((var0 Int) (var1 Int) (var2 Int) (var3 AddrRange) (var4 Int) (var5 Addr) (var6 Int) (var7 Addr) (var8 Int) (var9 Heap) (var10 Int) (var11 Int)) (or (not (and (inv_main31 var9 var8 var7 var6 var5 var4 var3 var2) (and (<= 0 (+ (+ var4 (* (- 1) var2)) (- 1))) (and (and (and (and (and (or (and (<= 0 (+ var4 (* (- 1) var2))) (<= 0 (+ (+ (+ var4 (* (- 1) var2)) (* (- 1) var10)) (- 1)))) (and (not (<= 0 (+ var4 (* (- 1) var2)))) (<= 0 (+ (+ (* (- 1) (+ var4 (* (- 1) var2))) (* (- 1) var10)) (- 1))))) (or (and (<= 0 (+ var4 (* (- 1) var2))) (<= 0 (+ (+ (+ var4 (* (- 1) var2)) (* 1 var10)) (- 1)))) (and (not (<= 0 (+ var4 (* (- 1) var2)))) (<= 0 (+ (+ (* (- 1) (+ var4 (* (- 1) var2))) (* 1 var10)) (- 1)))))) (or (not (<= 0 (+ var10 (- 1)))) (<= 0 (+ var0 (- 1))))) (or (not (<= 0 (+ (* (- 1) var10) (- 1)))) (<= 0 (+ (* (- 1) var0) (- 1))))) (= var0 (+ (* var11 (+ var4 (* (- 1) var2))) var10))) (= var1 (+ var2 var10)))))) (inv_main35 var9 var8 var7 var6 var5 var4 var3 var2 var1))))
(assert (forall ((var0 Int) (var1 Int) (var2 AddrRange) (var3 Int) (var4 Addr) (var5 Int) (var6 Addr) (var7 Int) (var8 Heap)) (or (not (and (inv_main13 var8 var7 var6 var5 var4 var3 var2 var1) (and (<= 0 (+ var3 (- 1))) (= var0 0)))) (inv_main28 var8 var7 var6 var5 var4 var3 var2 var0))))
(assert (forall ((var0 Int) (var1 AddrRange) (var2 Addr) (var3 Int) (var4 Addr) (var5 Int) (var6 Heap) (var7 Int) (var8 Int) (var9 Int) (var10 AddrRange) (var11 Int) (var12 Addr) (var13 Int) (var14 Addr) (var15 Int) (var16 Heap)) (or (not (and (inv_main28 var16 var15 var14 var13 var12 var11 var10 var9) (and (and (<= 0 (+ (+ var8 (* (- 1) (+ var7 1))) (- 1))) (and (and (is-O_Int (read var16 (nthAddrRange var10 var9))) (is-O_Int (read var16 (nthAddrRange var10 var9)))) (and (and (and (and (and (and (and (= var6 (write var16 (nthAddrRange var10 var9) (O_Int var9))) (= var5 var15)) (= var4 var14)) (= var3 var13)) (= var2 var12)) (= var8 var11)) (= var1 var10)) (= var7 var9)))) (= var0 (+ var7 1))))) (inv_main28 var6 var5 var4 var3 var2 var8 var1 var0))))
(assert (forall ((var0 Heap) (var1 Int) (var2 Int) (var3 Int) (var4 Int) (var5 AddrRange) (var6 Int) (var7 Int) (var8 AddrRange) (var9 Int) (var10 Addr) (var11 Int) (var12 Addr) (var13 Int) (var14 Heap)) (or (not (and (inv_main57 var14 var13 var12 var11 var10 var9 var8 var7 var6 var5 var4 var3 var2 var1) (and (and (is-O_Int (read var14 (nthAddrRange var5 (+ var3 (- 1))))) (is-O_Int (read var14 (nthAddrRange var5 (+ var3 (- 1)))))) (= var0 (write var14 (nthAddrRange var5 (+ var3 (- 1))) (O_Int var1)))))) (inv_main56 var0 var13 var12 var11 var10 var9 var8 var7 var6 var5 var4 var3 var2))))
(assert (forall ((var0 Int) (var1 Int) (var2 Int) (var3 AddrRange) (var4 Int) (var5 Int) (var6 AddrRange) (var7 Int) (var8 Addr) (var9 Int) (var10 Addr) (var11 Int) (var12 Heap)) (or (not (and (inv_main46 var12 var11 var10 var9 var8 var7 var6 var5 var4 var3 var2 var1 var0) (and (and (<= 0 (+ (+ var4 (* (- 1) (+ var1 (- 1)))) (- 1))) (<= 0 (+ (+ var4 (* (- 1) var1)) (- 1)))) (<= 0 (+ var1 (* (- 1) var2)))))) (inv_main49 var12 var11 var10 var9 var8 var7 var6 var5 var4 var3 var2 var1 var0))))
(assert (forall ((var0 Int) (var1 Int) (var2 Int) (var3 Int) (var4 AddrRange) (var5 Int) (var6 Int) (var7 AddrRange) (var8 Int) (var9 Addr) (var10 Int) (var11 Addr) (var12 Int) (var13 Heap) (var14 Int) (var15 Int) (var16 Int) (var17 AddrRange) (var18 Int) (var19 Int) (var20 AddrRange) (var21 Int) (var22 Addr) (var23 Int) (var24 Addr) (var25 Int) (var26 Heap)) (or (not (and (inv_main51 var26 var25 var24 var23 var22 var21 var20 var19 var18 var17 var16 var15 var14) (and (is-O_Int (read var26 (nthAddrRange var17 (+ var15 (- 1))))) (and (and (and (and (and (and (and (and (and (and (and (and (and (= var13 var26) (= var12 var25)) (= var11 var24)) (= var10 var23)) (= var9 var22)) (= var8 var21)) (= var7 var20)) (= var6 var19)) (= var5 var18)) (= var4 var17)) (= var3 var16)) (= var2 var15)) (= var1 var14)) (= var0 (getInt (read var26 (nthAddrRange var17 (+ var15 (- 1)))))))))) (inv_main54 var13 var12 var11 var10 var9 var8 var7 var6 var5 var4 var3 var2 var0))))
(assert (forall ((var0 Int) (var1 Int) (var2 AddrRange) (var3 Int) (var4 Addr) (var5 Int) (var6 Addr) (var7 Int) (var8 Heap) (var9 Int) (var10 Int) (var11 Int) (var12 AddrRange) (var13 Int) (var14 Addr) (var15 Int) (var16 Addr) (var17 Int) (var18 Heap)) (or (not (and (inv_main37 var18 var17 var16 var15 var14 var13 var12 var11 var10 var9) (and (and (and (is-O_Int (read var18 (nthAddrRange var12 var10))) (is-O_Int (read var18 (nthAddrRange var12 var10)))) (and (and (and (and (and (and (and (= var8 (write var18 (nthAddrRange var12 var10) (O_Int var9))) (= var7 var17)) (= var6 var16)) (= var5 var15)) (= var4 var14)) (= var3 var13)) (= var2 var12)) (= var1 var11))) (= var0 (+ var1 1))))) (inv_main31 var8 var7 var6 var5 var4 var3 var2 var0))))
(assert (forall ((var0 Int) (var1 Int) (var2 AddrRange) (var3 Int) (var4 Addr) (var5 Int) (var6 Addr) (var7 Int) (var8 Heap)) (or (not (and (inv_main13 var8 var7 var6 var5 var4 var3 var2 var1) (and (not (<= 0 (+ var3 (- 1)))) (= var0 0)))) (inv_main31 var8 var7 var6 var5 var4 var3 var2 var0))))
(assert (forall ((var0 Int) (var1 AddrRange) (var2 Addr) (var3 Int) (var4 Addr) (var5 Int) (var6 Heap) (var7 Int) (var8 Int) (var9 Int) (var10 AddrRange) (var11 Int) (var12 Addr) (var13 Int) (var14 Addr) (var15 Int) (var16 Heap)) (or (not (and (inv_main28 var16 var15 var14 var13 var12 var11 var10 var9) (and (and (not (<= 0 (+ (+ var8 (* (- 1) (+ var7 1))) (- 1)))) (and (and (is-O_Int (read var16 (nthAddrRange var10 var9))) (is-O_Int (read var16 (nthAddrRange var10 var9)))) (and (and (and (and (and (and (and (= var6 (write var16 (nthAddrRange var10 var9) (O_Int var9))) (= var5 var15)) (= var4 var14)) (= var3 var13)) (= var2 var12)) (= var8 var11)) (= var1 var10)) (= var7 var9)))) (= var0 0)))) (inv_main31 var6 var5 var4 var3 var2 var8 var1 var0))))
(assert (forall ((var0 Heap) (var1 Int) (var2 Int) (var3 Int) (var4 Int) (var5 AddrRange) (var6 Int) (var7 Addr) (var8 Int) (var9 Addr) (var10 Int) (var11 Heap)) (or (not (and (inv_main38 var11 var10 var9 var8 var7 var6 var5 var4 var3 var2 var1) (and (and (is-O_Int (read var11 (nthAddrRange var5 var4))) (is-O_Int (read var11 (nthAddrRange var5 var4)))) (= var0 (write var11 (nthAddrRange var5 var4) (O_Int var1)))))) (inv_main37 var0 var10 var9 var8 var7 var6 var5 var4 var3 var2))))
(assert (forall ((var0 Int) (var1 Int) (var2 Int) (var3 Int) (var4 Int) (var5 AddrRange) (var6 Int) (var7 Int) (var8 AddrRange) (var9 Int) (var10 Addr) (var11 Int) (var12 Addr) (var13 Int) (var14 Heap)) (or (not (and (inv_main46 var14 var13 var12 var11 var10 var9 var8 var7 var6 var5 var4 var3 var2) (and (and (and (<= 0 (+ (+ var6 (* (- 1) (+ var4 1))) (- 1))) (not (<= 0 (+ var3 (* (- 1) var4))))) (= var1 (+ var4 1))) (= var0 (+ var6 (- 1)))))) (inv_main46 var14 var13 var12 var11 var10 var9 var8 var7 var6 var5 var1 var0 var2))))
(assert (forall ((var0 Int) (var1 Int) (var2 Int) (var3 Int) (var4 AddrRange) (var5 Int) (var6 Int) (var7 AddrRange) (var8 Int) (var9 Addr) (var10 Int) (var11 Addr) (var12 Int) (var13 Heap) (var14 Int) (var15 Int) (var16 Int) (var17 AddrRange) (var18 Int) (var19 Int) (var20 AddrRange) (var21 Int) (var22 Addr) (var23 Int) (var24 Addr) (var25 Int) (var26 Heap)) (or (not (and (inv_main56 var26 var25 var24 var23 var22 var21 var20 var19 var18 var17 var16 var15 var14) (and (and (and (is-O_Int (read var26 (nthAddrRange var17 var15))) (is-O_Int (read var26 (nthAddrRange var17 var15)))) (and (and (and (and (and (and (and (and (and (and (and (and (= var13 (write var26 (nthAddrRange var17 var15) (O_Int var14))) (= var12 var25)) (= var11 var24)) (= var10 var23)) (= var9 var22)) (= var8 var21)) (= var7 var20)) (= var6 var19)) (= var5 var18)) (= var4 var17)) (= var3 var16)) (= var2 var15)) (= var1 var14))) (= var0 (+ var2 (- 1)))))) (inv_main46 var13 var12 var11 var10 var9 var8 var7 var6 var5 var4 var3 var0 var1))))
(assert (forall ((var0 Int) (var1 Int) (var2 Int) (var3 Int) (var4 AddrRange) (var5 Int) (var6 Int) (var7 AddrRange) (var8 Int) (var9 Addr) (var10 Int) (var11 Addr) (var12 Int) (var13 Heap)) (or (not (and (inv_main46 var13 var12 var11 var10 var9 var8 var7 var6 var5 var4 var3 var2 var1) (and (and (or (not (<= 0 (+ (+ var5 (* (- 1) (+ var2 (- 1)))) (- 1)))) (not (<= 0 (+ (+ var5 (* (- 1) var2)) (- 1))))) (<= 0 (+ var2 (* (- 1) var3)))) (= var0 (+ var2 (- 1)))))) (inv_main46 var13 var12 var11 var10 var9 var8 var7 var6 var5 var4 var3 var0 var1))))
(assert (forall ((var0 Int) (var1 Int) (var2 Int) (var3 Int) (var4 Int) (var5 AddrRange) (var6 Int) (var7 Int) (var8 AddrRange) (var9 Int) (var10 Addr) (var11 Int) (var12 Addr) (var13 Int) (var14 Heap)) (or (not (and (inv_main53 var14 var13 var12 var11 var10 var9 var8 var7 var6 var5 var4 var3 var2 var1) (and (and (is-O_Int (read var14 (nthAddrRange var5 var3))) (not (<= 0 (+ (+ var1 (* (- 1) (getInt (read var14 (nthAddrRange var5 var3))))) (- 1))))) (= var0 (+ var3 (- 1)))))) (inv_main46 var14 var13 var12 var11 var10 var9 var8 var7 var6 var5 var4 var0 var2))))
(assert (forall ((var0 Int) (var1 Int) (var2 Int) (var3 Int) (var4 AddrRange) (var5 Int) (var6 Addr) (var7 Int) (var8 Addr) (var9 Int) (var10 Heap)) (or (not (and (inv_main31 var10 var9 var8 var7 var6 var5 var4 var3) (and (and (and (<= 0 (+ (+ var5 (- 1)) (- 1))) (not (<= 0 (+ (+ var5 (* (- 1) var3)) (- 1))))) (= var2 1)) (= var1 (+ var5 (- 1)))))) (inv_main46 var10 var9 var8 var7 var6 var5 var4 var3 var5 var4 var2 var1 var0))))
(assert true)
(assert (forall ((var0 Int) (var1 Int) (var2 Int) (var3 Int) (var4 AddrRange) (var5 Addr) (var6 Int) (var7 Addr) (var8 Int) (var9 Heap) (var10 Int) (var11 Int) (var12 Int) (var13 AddrRange) (var14 Int) (var15 Addr) (var16 Int) (var17 Addr) (var18 Int) (var19 Heap)) (or (not (and (inv_main18 var19 var18 var17 var16 var15 var14 var13 var12) (and (and (and (and (<= 0 (+ (+ var11 (- 1)) (- 1))) (and (not (<= 0 (+ (+ var11 (* (- 1) (+ var10 1))) (- 1)))) (and (and (is-O_Int (read var19 (nthAddrRange var13 var12))) (is-O_Int (read var19 (nthAddrRange var13 var12)))) (and (and (and (and (and (and (and (= var9 (write var19 (nthAddrRange var13 var12) (O_Int var12))) (= var8 var18)) (= var7 var17)) (= var6 var16)) (= var5 var15)) (= var11 var14)) (= var4 var13)) (= var10 var12))))) (= var3 (+ var10 1))) (= var2 1)) (= var1 (+ var11 (- 1)))))) (inv_main46 var9 var8 var7 var6 var5 var11 var4 var3 var11 var4 var2 var1 var0))))
(assert true)
(assert (forall ((var0 Int) (var1 Int) (var2 Int) (var3 Int) (var4 AddrRange) (var5 Addr) (var6 Int) (var7 Addr) (var8 Int) (var9 Heap) (var10 Int) (var11 Int) (var12 Int) (var13 AddrRange) (var14 Int) (var15 Addr) (var16 Int) (var17 Addr) (var18 Int) (var19 Heap)) (or (not (and (inv_main23 var19 var18 var17 var16 var15 var14 var13 var12) (and (and (and (and (<= 0 (+ (+ var11 (- 1)) (- 1))) (and (not (<= 0 (+ var10 (- 1)))) (and (and (is-O_Int (read var19 (nthAddrRange var13 var12))) (is-O_Int (read var19 (nthAddrRange var13 var12)))) (and (and (and (and (and (and (and (= var9 (write var19 (nthAddrRange var13 var12) (O_Int (+ (+ var14 (- 1)) (* (- 1) var12))))) (= var8 var18)) (= var7 var17)) (= var6 var16)) (= var5 var15)) (= var11 var14)) (= var4 var13)) (= var10 var12))))) (= var3 (+ var10 (- 1)))) (= var2 1)) (= var1 (+ var11 (- 1)))))) (inv_main46 var9 var8 var7 var6 var5 var11 var4 var3 var11 var4 var2 var1 var0))))
(assert (forall ((var0 Int) (var1 Int) (var2 Int) (var3 Int) (var4 AddrRange) (var5 Int) (var6 Int) (var7 AddrRange) (var8 Int) (var9 Addr) (var10 Int) (var11 Addr) (var12 Int) (var13 Heap)) (or (not (and (inv_main49 var13 var12 var11 var10 var9 var8 var7 var6 var5 var4 var3 var2 var1) (and (is-O_Int (read var13 (nthAddrRange var4 (+ var2 (- 1))))) (= var0 (getInt (read var13 (nthAddrRange var4 (+ var2 (- 1))))))))) (inv_main53 var13 var12 var11 var10 var9 var8 var7 var6 var5 var4 var3 var2 var1 var0))))
(assert (forall ((var0 Int) (var1 Int) (var2 Int) (var3 Int) (var4 AddrRange) (var5 Int) (var6 Int) (var7 AddrRange) (var8 Int) (var9 Addr) (var10 Int) (var11 Addr) (var12 Int) (var13 Heap)) (or (not (and (inv_main54 var13 var12 var11 var10 var9 var8 var7 var6 var5 var4 var3 var2 var1) (and (is-O_Int (read var13 (nthAddrRange var4 var2))) (= var0 (getInt (read var13 (nthAddrRange var4 var2))))))) (inv_main57 var13 var12 var11 var10 var9 var8 var7 var6 var5 var4 var3 var2 var1 var0))))
(assert true)
(assert (forall ((var0 Int) (var1 AddrRange) (var2 Addr) (var3 Int) (var4 Addr) (var5 Int) (var6 Heap) (var7 Int) (var8 Int) (var9 Int) (var10 AddrRange) (var11 Int) (var12 Addr) (var13 Int) (var14 Addr) (var15 Int) (var16 Heap)) (or (not (and (inv_main18 var16 var15 var14 var13 var12 var11 var10 var9) (and (and (<= 0 (+ (+ var8 (* (- 1) (+ var7 1))) (- 1))) (and (and (is-O_Int (read var16 (nthAddrRange var10 var9))) (is-O_Int (read var16 (nthAddrRange var10 var9)))) (and (and (and (and (and (and (and (= var6 (write var16 (nthAddrRange var10 var9) (O_Int var9))) (= var5 var15)) (= var4 var14)) (= var3 var13)) (= var2 var12)) (= var8 var11)) (= var1 var10)) (= var7 var9)))) (= var0 (+ var7 1))))) (inv_main18 var6 var5 var4 var3 var2 var8 var1 var0))))
(assert (forall ((var0 Int) (var1 Int) (var2 Int) (var3 Int) (var4 AddrRange) (var5 Int) (var6 Int) (var7 AddrRange) (var8 Int) (var9 Addr) (var10 Int) (var11 Addr) (var12 Int) (var13 Heap)) (or (not (and (inv_main53 var13 var12 var11 var10 var9 var8 var7 var6 var5 var4 var3 var2 var1 var0) (and (is-O_Int (read var13 (nthAddrRange var4 var2))) (<= 0 (+ (+ var0 (* (- 1) (getInt (read var13 (nthAddrRange var4 var2))))) (- 1)))))) (inv_main51 var13 var12 var11 var10 var9 var8 var7 var6 var5 var4 var3 var2 var1))))
(assert (forall ((var0 Int) (var1 AddrRange) (var2 Int) (var3 Addr) (var4 Int) (var5 Addr) (var6 Int) (var7 Heap)) (not (and (inv_main18 var7 var6 var5 var4 var3 var2 var1 var0) (not (is-O_Int (read var7 (nthAddrRange var1 var0))))))))
(assert (forall ((var0 Int) (var1 AddrRange) (var2 Int) (var3 Addr) (var4 Int) (var5 Addr) (var6 Int) (var7 Heap)) (not (and (inv_main18 var7 var6 var5 var4 var3 var2 var1 var0) (and (is-O_Int (read var7 (nthAddrRange var1 var0))) (not (within var1 (nthAddrRange var1 var0))))))))
(assert (forall ((var0 Int) (var1 AddrRange) (var2 Int) (var3 Addr) (var4 Int) (var5 Addr) (var6 Int) (var7 Heap)) (not (and (inv_main18 var7 var6 var5 var4 var3 var2 var1 var0) (and (is-O_Int (read var7 (nthAddrRange var1 var0))) (not (is-O_Int (read var7 (nthAddrRange var1 var0)))))))))
(assert (forall ((var0 Int) (var1 AddrRange) (var2 Int) (var3 Addr) (var4 Int) (var5 Addr) (var6 Int) (var7 Heap)) (not (and (inv_main23 var7 var6 var5 var4 var3 var2 var1 var0) (not (is-O_Int (read var7 (nthAddrRange var1 var0))))))))
(assert (forall ((var0 Int) (var1 AddrRange) (var2 Int) (var3 Addr) (var4 Int) (var5 Addr) (var6 Int) (var7 Heap)) (not (and (inv_main23 var7 var6 var5 var4 var3 var2 var1 var0) (and (is-O_Int (read var7 (nthAddrRange var1 var0))) (not (within var1 (nthAddrRange var1 var0))))))))
(assert (forall ((var0 Int) (var1 AddrRange) (var2 Int) (var3 Addr) (var4 Int) (var5 Addr) (var6 Int) (var7 Heap)) (not (and (inv_main23 var7 var6 var5 var4 var3 var2 var1 var0) (and (is-O_Int (read var7 (nthAddrRange var1 var0))) (not (is-O_Int (read var7 (nthAddrRange var1 var0)))))))))
(assert (forall ((var0 Int) (var1 AddrRange) (var2 Int) (var3 Addr) (var4 Int) (var5 Addr) (var6 Int) (var7 Heap)) (not (and (inv_main28 var7 var6 var5 var4 var3 var2 var1 var0) (not (is-O_Int (read var7 (nthAddrRange var1 var0))))))))
(assert (forall ((var0 Int) (var1 AddrRange) (var2 Int) (var3 Addr) (var4 Int) (var5 Addr) (var6 Int) (var7 Heap)) (not (and (inv_main28 var7 var6 var5 var4 var3 var2 var1 var0) (and (is-O_Int (read var7 (nthAddrRange var1 var0))) (not (within var1 (nthAddrRange var1 var0))))))))
(assert (forall ((var0 Int) (var1 AddrRange) (var2 Int) (var3 Addr) (var4 Int) (var5 Addr) (var6 Int) (var7 Heap)) (not (and (inv_main28 var7 var6 var5 var4 var3 var2 var1 var0) (and (is-O_Int (read var7 (nthAddrRange var1 var0))) (not (is-O_Int (read var7 (nthAddrRange var1 var0)))))))))
(assert (forall ((var0 Int) (var1 Int) (var2 AddrRange) (var3 Int) (var4 Addr) (var5 Int) (var6 Addr) (var7 Int) (var8 Heap)) (not (and (inv_main35 var8 var7 var6 var5 var4 var3 var2 var1 var0) (not (is-O_Int (read var8 (nthAddrRange var2 var1))))))))
(assert (forall ((var0 Int) (var1 Int) (var2 AddrRange) (var3 Int) (var4 Addr) (var5 Int) (var6 Addr) (var7 Int) (var8 Heap)) (not (and (inv_main35 var8 var7 var6 var5 var4 var3 var2 var1 var0) (and (is-O_Int (read var8 (nthAddrRange var2 var1))) (not (within var2 (nthAddrRange var2 var1))))))))
(assert (forall ((var0 Int) (var1 Int) (var2 Int) (var3 AddrRange) (var4 Int) (var5 Addr) (var6 Int) (var7 Addr) (var8 Int) (var9 Heap)) (not (and (inv_main36 var9 var8 var7 var6 var5 var4 var3 var2 var1 var0) (not (is-O_Int (read var9 (nthAddrRange var3 var1))))))))
(assert (forall ((var0 Int) (var1 Int) (var2 Int) (var3 AddrRange) (var4 Int) (var5 Addr) (var6 Int) (var7 Addr) (var8 Int) (var9 Heap)) (not (and (inv_main36 var9 var8 var7 var6 var5 var4 var3 var2 var1 var0) (and (is-O_Int (read var9 (nthAddrRange var3 var1))) (not (within var3 (nthAddrRange var3 var1))))))))
(assert (forall ((var0 Int) (var1 Int) (var2 Int) (var3 Int) (var4 AddrRange) (var5 Int) (var6 Addr) (var7 Int) (var8 Addr) (var9 Int) (var10 Heap)) (not (and (inv_main38 var10 var9 var8 var7 var6 var5 var4 var3 var2 var1 var0) (not (is-O_Int (read var10 (nthAddrRange var4 var3))))))))
(assert (forall ((var0 Int) (var1 Int) (var2 Int) (var3 Int) (var4 AddrRange) (var5 Int) (var6 Addr) (var7 Int) (var8 Addr) (var9 Int) (var10 Heap)) (not (and (inv_main38 var10 var9 var8 var7 var6 var5 var4 var3 var2 var1 var0) (and (is-O_Int (read var10 (nthAddrRange var4 var3))) (not (within var4 (nthAddrRange var4 var3))))))))
(assert (forall ((var0 Int) (var1 Int) (var2 Int) (var3 Int) (var4 AddrRange) (var5 Int) (var6 Addr) (var7 Int) (var8 Addr) (var9 Int) (var10 Heap)) (not (and (inv_main38 var10 var9 var8 var7 var6 var5 var4 var3 var2 var1 var0) (and (is-O_Int (read var10 (nthAddrRange var4 var3))) (not (is-O_Int (read var10 (nthAddrRange var4 var3)))))))))
(assert (forall ((var0 Int) (var1 Int) (var2 Int) (var3 AddrRange) (var4 Int) (var5 Addr) (var6 Int) (var7 Addr) (var8 Int) (var9 Heap)) (not (and (inv_main37 var9 var8 var7 var6 var5 var4 var3 var2 var1 var0) (not (is-O_Int (read var9 (nthAddrRange var3 var1))))))))
(assert (forall ((var0 Int) (var1 Int) (var2 Int) (var3 AddrRange) (var4 Int) (var5 Addr) (var6 Int) (var7 Addr) (var8 Int) (var9 Heap)) (not (and (inv_main37 var9 var8 var7 var6 var5 var4 var3 var2 var1 var0) (and (is-O_Int (read var9 (nthAddrRange var3 var1))) (not (within var3 (nthAddrRange var3 var1))))))))
(assert (forall ((var0 Int) (var1 Int) (var2 Int) (var3 AddrRange) (var4 Int) (var5 Addr) (var6 Int) (var7 Addr) (var8 Int) (var9 Heap)) (not (and (inv_main37 var9 var8 var7 var6 var5 var4 var3 var2 var1 var0) (and (is-O_Int (read var9 (nthAddrRange var3 var1))) (not (is-O_Int (read var9 (nthAddrRange var3 var1)))))))))
(assert true)
(assert (forall ((var0 Int) (var1 Int) (var2 Int) (var3 AddrRange) (var4 Int) (var5 Int) (var6 AddrRange) (var7 Int) (var8 Addr) (var9 Int) (var10 Addr) (var11 Int) (var12 Heap)) (not (and (inv_main49 var12 var11 var10 var9 var8 var7 var6 var5 var4 var3 var2 var1 var0) (not (is-O_Int (read var12 (nthAddrRange var3 (+ var1 (- 1))))))))))
(assert (forall ((var0 Int) (var1 Int) (var2 Int) (var3 AddrRange) (var4 Int) (var5 Int) (var6 AddrRange) (var7 Int) (var8 Addr) (var9 Int) (var10 Addr) (var11 Int) (var12 Heap)) (not (and (inv_main49 var12 var11 var10 var9 var8 var7 var6 var5 var4 var3 var2 var1 var0) (and (is-O_Int (read var12 (nthAddrRange var3 (+ var1 (- 1))))) (not (within var3 (nthAddrRange var3 (+ var1 (- 1))))))))))
(assert (forall ((var0 Int) (var1 Int) (var2 Int) (var3 Int) (var4 AddrRange) (var5 Int) (var6 Int) (var7 AddrRange) (var8 Int) (var9 Addr) (var10 Int) (var11 Addr) (var12 Int) (var13 Heap)) (not (and (inv_main53 var13 var12 var11 var10 var9 var8 var7 var6 var5 var4 var3 var2 var1 var0) (not (is-O_Int (read var13 (nthAddrRange var4 var2))))))))
(assert (forall ((var0 Int) (var1 Int) (var2 Int) (var3 Int) (var4 AddrRange) (var5 Int) (var6 Int) (var7 AddrRange) (var8 Int) (var9 Addr) (var10 Int) (var11 Addr) (var12 Int) (var13 Heap)) (not (and (inv_main53 var13 var12 var11 var10 var9 var8 var7 var6 var5 var4 var3 var2 var1 var0) (and (is-O_Int (read var13 (nthAddrRange var4 var2))) (not (within var4 (nthAddrRange var4 var2))))))))
(assert (forall ((var0 Int) (var1 Int) (var2 Int) (var3 AddrRange) (var4 Int) (var5 Int) (var6 AddrRange) (var7 Int) (var8 Addr) (var9 Int) (var10 Addr) (var11 Int) (var12 Heap)) (not (and (inv_main51 var12 var11 var10 var9 var8 var7 var6 var5 var4 var3 var2 var1 var0) (not (is-O_Int (read var12 (nthAddrRange var3 (+ var1 (- 1))))))))))
(assert (forall ((var0 Int) (var1 Int) (var2 Int) (var3 AddrRange) (var4 Int) (var5 Int) (var6 AddrRange) (var7 Int) (var8 Addr) (var9 Int) (var10 Addr) (var11 Int) (var12 Heap)) (not (and (inv_main51 var12 var11 var10 var9 var8 var7 var6 var5 var4 var3 var2 var1 var0) (and (is-O_Int (read var12 (nthAddrRange var3 (+ var1 (- 1))))) (not (within var3 (nthAddrRange var3 (+ var1 (- 1))))))))))
(assert (forall ((var0 Int) (var1 Int) (var2 Int) (var3 AddrRange) (var4 Int) (var5 Int) (var6 AddrRange) (var7 Int) (var8 Addr) (var9 Int) (var10 Addr) (var11 Int) (var12 Heap)) (not (and (inv_main54 var12 var11 var10 var9 var8 var7 var6 var5 var4 var3 var2 var1 var0) (not (is-O_Int (read var12 (nthAddrRange var3 var1))))))))
(assert (forall ((var0 Int) (var1 Int) (var2 Int) (var3 AddrRange) (var4 Int) (var5 Int) (var6 AddrRange) (var7 Int) (var8 Addr) (var9 Int) (var10 Addr) (var11 Int) (var12 Heap)) (not (and (inv_main54 var12 var11 var10 var9 var8 var7 var6 var5 var4 var3 var2 var1 var0) (and (is-O_Int (read var12 (nthAddrRange var3 var1))) (not (within var3 (nthAddrRange var3 var1))))))))
(assert (forall ((var0 Int) (var1 Int) (var2 Int) (var3 Int) (var4 AddrRange) (var5 Int) (var6 Int) (var7 AddrRange) (var8 Int) (var9 Addr) (var10 Int) (var11 Addr) (var12 Int) (var13 Heap)) (not (and (inv_main57 var13 var12 var11 var10 var9 var8 var7 var6 var5 var4 var3 var2 var1 var0) (not (is-O_Int (read var13 (nthAddrRange var4 (+ var2 (- 1))))))))))
(assert (forall ((var0 Int) (var1 Int) (var2 Int) (var3 Int) (var4 AddrRange) (var5 Int) (var6 Int) (var7 AddrRange) (var8 Int) (var9 Addr) (var10 Int) (var11 Addr) (var12 Int) (var13 Heap)) (not (and (inv_main57 var13 var12 var11 var10 var9 var8 var7 var6 var5 var4 var3 var2 var1 var0) (and (is-O_Int (read var13 (nthAddrRange var4 (+ var2 (- 1))))) (not (within var4 (nthAddrRange var4 (+ var2 (- 1))))))))))
(assert (forall ((var0 Int) (var1 Int) (var2 Int) (var3 Int) (var4 AddrRange) (var5 Int) (var6 Int) (var7 AddrRange) (var8 Int) (var9 Addr) (var10 Int) (var11 Addr) (var12 Int) (var13 Heap)) (not (and (inv_main57 var13 var12 var11 var10 var9 var8 var7 var6 var5 var4 var3 var2 var1 var0) (and (is-O_Int (read var13 (nthAddrRange var4 (+ var2 (- 1))))) (not (is-O_Int (read var13 (nthAddrRange var4 (+ var2 (- 1)))))))))))
(assert (forall ((var0 Int) (var1 Int) (var2 Int) (var3 AddrRange) (var4 Int) (var5 Int) (var6 AddrRange) (var7 Int) (var8 Addr) (var9 Int) (var10 Addr) (var11 Int) (var12 Heap)) (not (and (inv_main56 var12 var11 var10 var9 var8 var7 var6 var5 var4 var3 var2 var1 var0) (not (is-O_Int (read var12 (nthAddrRange var3 var1))))))))
(assert (forall ((var0 Int) (var1 Int) (var2 Int) (var3 AddrRange) (var4 Int) (var5 Int) (var6 AddrRange) (var7 Int) (var8 Addr) (var9 Int) (var10 Addr) (var11 Int) (var12 Heap)) (not (and (inv_main56 var12 var11 var10 var9 var8 var7 var6 var5 var4 var3 var2 var1 var0) (and (is-O_Int (read var12 (nthAddrRange var3 var1))) (not (within var3 (nthAddrRange var3 var1))))))))
(assert (forall ((var0 Int) (var1 Int) (var2 Int) (var3 AddrRange) (var4 Int) (var5 Int) (var6 AddrRange) (var7 Int) (var8 Addr) (var9 Int) (var10 Addr) (var11 Int) (var12 Heap)) (not (and (inv_main56 var12 var11 var10 var9 var8 var7 var6 var5 var4 var3 var2 var1 var0) (and (is-O_Int (read var12 (nthAddrRange var3 var1))) (not (is-O_Int (read var12 (nthAddrRange var3 var1)))))))))
(check-sat)
